************************************************************************
file with basedata            : md375_.bas
initial value random generator: 1101457351
************************************************************************
projects                      :  1
jobs (incl. supersource/sink ):  22
horizon                       :  151
RESOURCES
  - renewable                 :  2   R
  - nonrenewable              :  2   N
  - doubly constrained        :  0   D
************************************************************************
PROJECT INFORMATION:
pronr.  #jobs rel.date duedate tardcost  MPM-Time
    1     20      0       28       11       28
************************************************************************
PRECEDENCE RELATIONS:
jobnr.    #modes  #successors   successors
   1        1          3           2   3   4
   2        3          3           7   9  11
   3        3          3           9  12  18
   4        3          3           5   6  18
   5        3          3           8  10  15
   6        3          1          15
   7        3          2          10  14
   8        3          3           9  11  12
   9        3          2          19  20
  10        3          2          16  19
  11        3          2          14  17
  12        3          1          13
  13        3          2          16  17
  14        3          1          16
  15        3          1          21
  16        3          2          20  21
  17        3          1          19
  18        3          2          20  21
  19        3          1          22
  20        3          1          22
  21        3          1          22
  22        1          0        
************************************************************************
REQUESTS/DURATIONS:
jobnr. mode duration  R 1  R 2  N 1  N 2
------------------------------------------------------------------------
  1      1     0       0    0    0    0
  2      1     2      10    4    4    9
         2     8       8    4    1    5
         3     8       7    2    4    8
  3      1     3       8   10    9    7
         2     3       7   10   10    9
         3    10       6    9    8    5
  4      1     8       4    4    7    5
         2     8       6    4    1    4
         3     8       2    4    8    4
  5      1     5       3    7   10    6
         2     6       3    6    8    5
         3     9       1    5    7    4
  6      1     6       3   10    6    9
         2     8       2    2    6    7
         3     8       1    1    6    8
  7      1     7       8   10    9    5
         2     8       7    9    6    2
         3    10       4    9    5    2
  8      1     2       6    6    5    3
         2     6       3    6    4    3
         3     8       2    2    4    3
  9      1     2       9    5    5    5
         2     2       9    4    5    6
         3     3       9    2    5    3
 10      1     5       7    4    3    3
         2     5       7    3    5    3
         3     6       5    2    1    3
 11      1     1      10    7    5    7
         2     4      10    5    4    7
         3     5      10    2    3    7
 12      1     3       4    4    8    7
         2     6       3    3    7    5
         3     9       3    2    6    4
 13      1     1       7    7   10   10
         2     4       7    7   10    7
         3     9       5    7   10    6
 14      1     5       4    7    3    4
         2     9       3    4    2    3
         3    10       3    1    2    3
 15      1     2      10    9    9    4
         2     7       9    6    5    3
         3     8       9    5    3    2
 16      1     1       9    5    1    7
         2     3       8    4    1    6
         3     9       8    4    1    4
 17      1     1       6    8    6    5
         2     1       7    8    6    3
         3     2       4    7    4    2
 18      1     8       4    6    9   10
         2     8       4    7    8   10
         3    10       4    5    5   10
 19      1     1       9    4    6    7
         2     1      10    5    5    5
         3     3       5    4    4    3
 20      1     6       7    4    5    6
         2     7       6    4    5    5
         3     8       5    3    4    4
 21      1     4       6    9    9    4
         2     5       6    8    8    4
         3     8       6    8    7    4
 22      1     0       0    0    0    0
************************************************************************
RESOURCEAVAILABILITIES:
  R 1  R 2  N 1  N 2
   36   29  122  116
************************************************************************
MAXIMAL LAGS:
from  to  type  delay
    1   12   ES      0
    1    2   ES      0
    2   12   ES      0
    1    3   ES      0
    3   12   ES      0
    1    4   ES      0
    4   12   ES      0
    1    5   ES      0
    5   12   ES      0
    1    6   ES      0
    6   12   ES      0
    1    7   ES      0
    7   12   ES      0
    1    8   ES      0
    8   12   ES      0
    1    9   ES      0
    9   12   ES      0
    1   10   ES      0
   10   12   ES      0
    1   11   ES      0
   11   12   ES      0
    1   12   ES      0
    2    7   SS     -8
    2    7   SE      4
    2    7   ES     -7
    2    7   EE      0
    2    9   SS     -8
    2    9   SE     11
    2    9   ES      7
    2    9   EE    -12
    2   11   SS     -9
    2   11   SE      1
    2   11   ES     -1
    2   11   EE     -9
    3    9   SS     -2
    3    9   SE      7
    3    9   ES     11
    3    9   EE      6
    3   18   SS     -2
    3   18   SE     -7
    3   18   ES      3
    3   18   EE     -3
    4    5   SS      2
    4    5   SE      5
    4    5   ES     11
    4    5   EE      3
    4    6   SS     -9
    4    6   SE     -1
    4    6   ES      8
    4    6   EE     -2
    4   18   SS     11
    4   18   SE     -5
    4   18   ES     -6
    4   18   EE     -6
    5    8   SS    -10
    5    8   SE      8
    5    8   ES      2
    5    8   EE      6
    5   10   SS     12
    5   10   SE     -5
    5   10   ES    -10
    5   10   EE      9
    5   15   SS     -6
    5   15   SE      8
    5   15   ES     -3
    5   15   EE      3
    6   15   SS     -2
    6   15   SE      0
    6   15   ES    -10
    6   15   EE      7
    7   10   SS      1
    7   10   SE     11
    7   10   ES     -9
    7   10   EE      2
    7   14   SS      0
    7   14   SE     -1
    7   14   ES      8
    7   14   EE    -11
    8    9   SS     -8
    8    9   SE     -9
    8    9   ES    -12
    8    9   EE    -12
    8   11   SS    -11
    8   11   SE     -7
    8   11   ES      3
    8   11   EE      4
    9   19   SS      1
    9   19   SE     -3
    9   19   ES      9
    9   19   EE      7
    9   20   SS     12
    9   20   SE      6
    9   20   ES     -1
    9   20   EE      4
   10   16   SS      9
   10   16   SE     12
   10   16   ES      2
   10   16   EE    -11
   10   19   SS     12
   10   19   SE    -12
   10   19   ES     -1
   10   19   EE     -9
   11   14   SS      8
   11   14   SE     -8
   11   14   ES     -2
   11   14   EE     -5
   11   17   SS      4
   11   17   SE      8
   11   17   ES    -11
   11   17   EE      8
   12   13   SS      1
   12   13   SE     -6
   12   13   ES     -9
   12   13   EE      7
   13   16   SS     10
   13   16   SE    -12
   13   16   ES     -2
   13   16   EE     -6
   13   17   SS      3
   13   17   SE      0
   13   17   ES      7
   13   17   EE     -6
   14   16   SS     -7
   14   16   SE     11
   14   16   ES      5
   14   16   EE      2
   15   21   SS      8
   15   21   SE      6
   15   21   ES      9
   15   21   EE     -7
   16   20   SS     10
   16   20   SE      3
   16   20   ES     -3
   16   20   EE      9
   16   21   SS      0
   16   21   SE     12
   16   21   ES     -7
   16   21   EE     -7
   17   19   SS      0
   17   19   SE      4
   17   19   ES      9
   17   19   EE      7
   18   20   SS      3
   18   20   SE     -2
   18   20   ES     -6
   18   20   EE    -10
   18   21   SS    -10
   18   21   SE     11
   18   21   ES     -1
   18   21   EE     -7
   19   22   SS      9
   19   22   SE     -4
   19   22   ES     12
   19   22   EE     -6
   20   22   SS      5
   20   22   SE      3
   20   22   ES     -8
   20   22   EE      9
   21   22   SS    -12
   21   22   SE      2
   21   22   ES     -2
   21   22   EE      2
************************************************************************
